# Solution for model GasLib-40
# Objective value = 1.0587098197354582e+01
loadshed[innode_1] 0
loadshed[innode_2] 0
loadshed[innode_3] 0
loadshed[innode_4] 0
loadshed[innode_5] 0
loadshed[innode_6] 0
loadshed[innode_7] 0
loadshed[innode_8] 0
loadshed[source_1] -3.1963128526101103e-01
loadshed[source_2] 9.0059979970716242e-02
loadshed[source_3] 0.296539991449575
loadshed[sink_1] 0
loadshed[sink_2] 0
loadshed[sink_3] 0
loadshed[sink_4] 0
loadshed[sink_5] 0
loadshed[sink_6] 0
loadshed[sink_7] 0
loadshed[sink_8] 0
loadshed[sink_9] 0
loadshed[sink_10] 0
loadshed[sink_11] 0
loadshed[sink_12] 6.4736396620766867e-01
loadshed[sink_13] 0
loadshed[sink_14] 0
loadshed[sink_15] 0
loadshed[sink_16] 0
loadshed[sink_17] 0
loadshed[sink_18] 0
loadshed[sink_19] 0
loadshed[sink_20] 0
loadshed[sink_21] 0
loadshed[sink_22] 0
loadshed[sink_23] 0
loadshed[sink_24] 0
loadshed[sink_25] 0
loadshed[sink_26] 0
loadshed[sink_27] 0
loadshed[sink_28] 0
loadshed[sink_29] 0
flow[source_1,sink_3] 2.0862087645115912e+02
flow[innode_1,sink_16] 1.6354166666666970e+01
flow[innode_6,sink_13] 3.2689785093712382e+00
flow[sink_13,sink_14] -1.3085188157295430e+01
flow[sink_14,sink_10] -2.9439354823962276e+01
flow[sink_25,sink_26] 1.4976933545978420e+02
flow[sink_26,sink_9] 1.3341516879311743e+02
flow[sink_9,sink_18] 1.1706100212645076e+02
flow[sink_26,sink_4] 0
flow[sink_4,sink_20] -3.3685098049390263e+01
flow[sink_18,sink_6] 1.0070683545978409e+02
flow[sink_25,innode_8] -1.7591254311782274e+02
flow[sink_6,sink_7] 5.1644335459783633e+01
flow[sink_6,sink_22] 3.2708333333333641e+01
flow[sink_7,sink_24] 3.8475401802645422e+01
flow[sink_22,sink_1] 1.6354166666666970e+01
flow[sink_24,sink_21] 2.2121235135978754e+01
flow[sink_21,sink_12] 5.7670684693120862e+00
flow[sink_7,sink_5] -3.1852330095283321e+00
flow[sink_5,sink_17] -1.9539399676194989e+01
flow[sink_17,sink_4] -1.7330931382723595e+01
flow[sink_17,sink_8] -1.8562634960137835e+01
flow[sink_3,sink_23] 16.3541666666697
flow[sink_8,sink_20] -34.9168016268045
flow[sink_25,sink_20] 8.4956066342861448e+01
flow[sink_25,sink_15] -7.8436003860861391e+01
flow[sink_15,sink_29] -1.1114433719421231e+02
flow[sink_29,sink_28] 1.6354166666667879e+01
flow[sink_29,sink_2] 0
flow[sink_2,sink_15] -1.6354166666684250e+01
flow[sink_29,innode_7] -1.4385267052754614e+02
flow[innode_4,sink_19] 4.2778289597591730e+01
flow[sink_19,innode_3] 7.8501854823962475e+01
flow[innode_4,innode_5] 68.4318985597029
flow[sink_27,innode_5] -68.4318985597029
flow[sink_27,sink_19] 5.2077731893036237e+01
flow[sink_10,sink_11] 3.2708333333333641e+01
flow[sink_10,innode_2] 0
flow[sink_10,innode_3] -7.8501854823962475e+01
flow[innode_6,sink_25] -3.2689785093712382e+00
flow[sink_11,innode_1] 1.6354166666666970e+01
flow[sink_19,innode_2] 0
flow[source_3,innode_4] 1.1121018815729462e+02
flow[source_2,innode_7] 1.4385267052754614e+02
flow[sink_3,innode_8] 1.7591254311782274e+02
pressure[innode_1] 7.4775213965755441e+01
pressure[innode_2] 7.9280192488698418e+01
pressure[innode_3] 7.9106359020561484e+01
pressure[innode_4] 81.01325
pressure[innode_5] 8.0966178931745446e+01
pressure[innode_6] 7.3529079400743925e+01
pressure[innode_7] 81.01325
pressure[innode_8] 8.0315910106087244e+01
pressure[source_1] 81.01325
pressure[source_2] 81.01325
pressure[source_3] 81.01325
pressure[sink_1] 4.5969804952081518e+01
pressure[sink_2] 7.3856177699457433e+01
pressure[sink_3] 8.0315910106087244e+01
pressure[sink_4] 5.0804517529681178e+01
pressure[sink_5] 4.8686642438174133e+01
pressure[sink_6] 4.8070882562468888e+01
pressure[sink_7] 4.7361928938070228e+01
pressure[sink_8] 5.0842602920798996e+01
pressure[sink_9] 5.4995670871624341e+01
pressure[sink_10] 7.4926915273358986e+01
pressure[sink_11] 7.4775213965755441e+01
pressure[sink_12] 1.0132499999999998e+00
pressure[sink_13] 7.3511058068518821e+01
pressure[sink_14] 7.3534475127337871e+01
pressure[sink_15] 7.3909570449223878e+01
pressure[sink_16] 7.3753564130937761e+01
pressure[sink_17] 5.0142186479213223e+01
pressure[sink_18] 5.0760054912898745e+01
pressure[sink_19] 7.9280192488698418e+01
pressure[sink_20] 5.3275812949742082e+01
pressure[sink_21] 3.0654885942680243e+00
pressure[sink_22] 4.7033574094436531e+01
pressure[sink_23] 8.0151192094427458e+01
pressure[sink_24] 3.3104607203203393e+00
pressure[sink_25] 7.3529079400743925e+01
pressure[sink_26] 6.2980913058964447e+01
pressure[sink_27] 80.3983206222522
pressure[sink_28] 76.8704723319603
pressure[sink_29] 7.7165754605577476e+01
interdiction[source_1,sink_3] 0
interdiction[innode_1,sink_16] 0
interdiction[innode_6,sink_13] 0
interdiction[sink_13,sink_14] 0
interdiction[sink_14,sink_10] 0
interdiction[sink_25,sink_26] 0
interdiction[sink_26,sink_9] 0
interdiction[sink_9,sink_18] 0
interdiction[sink_26,sink_4] 1
interdiction[sink_4,sink_20] 0
interdiction[sink_18,sink_6] 0
interdiction[sink_25,innode_8] 0
interdiction[sink_6,sink_7] 0
interdiction[sink_6,sink_22] 0
interdiction[sink_7,sink_24] 0
interdiction[sink_22,sink_1] 0
interdiction[sink_24,sink_21] 0
interdiction[sink_21,sink_12] 0
interdiction[sink_7,sink_5] 0
interdiction[sink_5,sink_17] 0
interdiction[sink_17,sink_4] 0
interdiction[sink_17,sink_8] 0
interdiction[sink_3,sink_23] 0
interdiction[sink_8,sink_20] 0
interdiction[sink_25,sink_20] 0
interdiction[sink_25,sink_15] 0
interdiction[sink_15,sink_29] 0
interdiction[sink_29,sink_28] 0
interdiction[sink_29,sink_2] 1
interdiction[sink_2,sink_15] 0
interdiction[sink_29,innode_7] 0
interdiction[innode_4,sink_19] 0
interdiction[sink_19,innode_3] 0
interdiction[innode_4,innode_5] 0
interdiction[sink_27,innode_5] 0
interdiction[sink_27,sink_19] 0
interdiction[sink_10,sink_11] 0
interdiction[sink_10,innode_2] 1
interdiction[sink_10,innode_3] 0
interdiction[innode_6,sink_25] 0
interdiction[sink_11,innode_1] 0
interdiction[sink_19,innode_2] 0
interdiction[source_3,innode_4] 0
interdiction[source_2,innode_7] 0
interdiction[sink_3,innode_8] 0
WCcheckFlow[source_1,sink_3] 39
WCcheckFlow[innode_1,sink_16] 1
WCcheckFlow[innode_6,sink_13] 13
WCcheckFlow[sink_13,sink_14] 12
WCcheckFlow[sink_14,sink_10] 11
WCcheckFlow[sink_25,sink_26] 15
WCcheckFlow[sink_26,sink_9] 14
WCcheckFlow[sink_9,sink_18] 13
WCcheckFlow[sink_26,sink_4] 0
WCcheckFlow[sink_4,sink_20] 1
WCcheckFlow[sink_18,sink_6] 12
WCcheckFlow[sink_25,innode_8] -36
WCcheckFlow[sink_6,sink_7] 9
WCcheckFlow[sink_6,sink_22] 2
WCcheckFlow[sink_7,sink_24] 3
WCcheckFlow[sink_22,sink_1] 1
WCcheckFlow[sink_24,sink_21] 2
WCcheckFlow[sink_21,sink_12] 1
WCcheckFlow[sink_7,sink_5] 5
WCcheckFlow[sink_5,sink_17] 4
WCcheckFlow[sink_17,sink_4] 2
WCcheckFlow[sink_17,sink_8] 1
WCcheckFlow[sink_3,sink_23] 1
WCcheckFlow[sink_8,sink_20] 0
WCcheckFlow[sink_25,sink_20] 0
WCcheckFlow[sink_25,sink_15] 6
WCcheckFlow[sink_15,sink_29] 4
WCcheckFlow[sink_29,sink_28] 1
WCcheckFlow[sink_29,sink_2] 0
WCcheckFlow[sink_2,sink_15] -1
WCcheckFlow[sink_29,innode_7] 2
WCcheckFlow[innode_4,sink_19] -4
WCcheckFlow[sink_19,innode_3] -6
WCcheckFlow[innode_4,innode_5] 2
WCcheckFlow[sink_27,innode_5] -1
WCcheckFlow[sink_27,sink_19] 0
WCcheckFlow[sink_10,sink_11] 3
WCcheckFlow[sink_10,innode_2] 0
WCcheckFlow[sink_10,innode_3] 7
WCcheckFlow[innode_6,sink_25] -14
WCcheckFlow[sink_11,innode_1] 2
WCcheckFlow[sink_19,innode_2] 1
WCcheckFlow[source_3,innode_4] -1
WCcheckFlow[source_2,innode_7] -1
WCcheckFlow[sink_3,innode_8] 37
